
Log started (V12.10.0.0) Fri Apr  2 07:58:05 2021


Problem 'asset.lp' read.
Read time = 0.01 sec. (0.20 ticks)
New value for default parallel thread count: 1
New value for time limit in seconds: 300
Version identifier: 12.10.0.0 | 2019-11-26 | 843d4de
CPXPARAM_Threads                                 1
CPXPARAM_TimeLimit                               300
Found incumbent of value 0.000000 after 0.00 sec. (0.06 ticks)
Tried aggregator 3 times.
MIP Presolve eliminated 401 rows and 120 columns.
MIP Presolve modified 1803 coefficients.
Aggregator did 680 substitutions.
Reduced MIP has 776 rows, 994 columns, and 3874 nonzeros.
Reduced MIP has 861 binaries, 106 generals, 0 SOSs, and 0 indicators.
Presolve time = 0.01 sec. (8.92 ticks)
Probing fixed 45 vars, tightened 5 bounds.
Probing time = 0.01 sec. (2.76 ticks)
Cover probing fixed 0 vars, tightened 24 bounds.
Tried aggregator 2 times.
Detecting symmetries...
MIP Presolve eliminated 83 rows and 78 columns.
MIP Presolve modified 288 coefficients.
Aggregator did 3 substitutions.
Reduced MIP has 690 rows, 913 columns, and 3269 nonzeros.
Reduced MIP has 786 binaries, 101 generals, 0 SOSs, and 0 indicators.
Presolve time = 0.01 sec. (4.98 ticks)
Probing time = 0.00 sec. (2.19 ticks)
Clique table members: 2317.
MIP emphasis: balance optimality and feasibility.
MIP search method: dynamic search.
Parallel mode: none, using 1 thread.
Root relaxation solution time = 0.01 sec. (13.15 ticks)

        Nodes                                         Cuts/
   Node  Left     Objective  IInf  Best Integer    Best Bound    ItCnt     Gap

*     0+    0                            0.0000      610.0000              --- 
      0     0      469.4390   170        0.0000      469.4390      538     --- 
      0     0      432.3830   170        0.0000     Cuts: 250      802     --- 
      0     0      409.9993   170        0.0000     Cuts: 177     1029     --- 
      0     0      400.7536   170        0.0000     Cuts: 121     1173     --- 
      0     0      393.7410   170        0.0000     Cuts: 107     1304     --- 
      0     0      390.3270   170        0.0000      Cuts: 93     1401     --- 
Detecting symmetries...
      0     0      388.3670   170        0.0000     Cuts: 101     1480     --- 
      0     0      386.0822   170        0.0000      Cuts: 93     1584     --- 
      0     0      383.5347   170        0.0000      Cuts: 87     1655     --- 
      0     0      382.5269   170        0.0000      Cuts: 73     1721     --- 
      0     0      382.0803   170        0.0000      Cuts: 48     1769     --- 
      0     0      381.0430   170        0.0000      Cuts: 65     1854     --- 
      0     0      380.7823   170        0.0000      Cuts: 77     1941     --- 
      0     0      380.6213   170        0.0000      Cuts: 66     2000     --- 
      0     0      380.3923   170        0.0000      Cuts: 54     2085     --- 
      0     0      380.0018   170        0.0000      Cuts: 79     2166     --- 
      0     0      379.6165   170        0.0000      Cuts: 98     2294     --- 
*     0+    0                           15.0000      379.6165              --- 
*     0+    0                          210.0000      379.6165            80.77%
      0     0        cutoff            210.0000      379.6165     2294   80.77%
      0     0      378.4916   170      210.0000      Cuts: 76     2409   80.23%
      0     0      378.1031   170      210.0000      Cuts: 70     2484   80.05%
      0     0      377.2548   170      210.0000      Cuts: 64     2580   79.65%
      0     0      373.7453   170      210.0000      Cuts: 69     2737   77.97%
      0     0      370.3284   170      210.0000     Cuts: 107     2911   76.35%
      0     0      369.0124   170      210.0000      Cuts: 91     3010   75.72%
      0     0      367.6093   170      210.0000     Cuts: 119     3102   75.05%
      0     0      367.0467   170      210.0000      Cuts: 74     3189   74.78%
      0     0      366.2884   170      210.0000      Cuts: 68     3285   74.42%
      0     0      366.0177   170      210.0000      Cuts: 76     3363   74.29%
      0     0      364.7381   170      210.0000      Cuts: 69     3469   73.68%
      0     0      363.8705   170      210.0000      Cuts: 70     3567   73.27%
      0     0      362.8508   170      210.0000      Cuts: 76     3643   72.79%
      0     0      362.5833   170      210.0000      Cuts: 59     3706   72.66%
      0     0      361.6245   170      210.0000      Cuts: 41     3827   72.20%
      0     0      360.9131   170      210.0000      Cuts: 81     3901   71.86%
      0     0      360.7572   170      210.0000      Cuts: 59     3974   71.79%
*     0+    0                          240.0000      360.7572            50.32%
*     0+    0                          260.0000      360.7572            38.75%
*     0+    0                          270.0000      360.7572            33.61%
      0     0        cutoff            270.0000      360.7572     3974   33.61%
      0     0      360.0675   170      270.0000      Cuts: 72     4070   33.36%
      0     0      359.7073   170      270.0000      Cuts: 55     4163   33.22%
      0     0      358.8778   170      270.0000      Cuts: 52     4324   32.92%
      0     0      358.3252   170      270.0000      Cuts: 87     4381   32.71%
      0     0      358.1434   170      270.0000      Cuts: 72     4559   32.65%
*     0+    0                          280.0000      358.1434            27.91%
      0     0      357.6104   170      280.0000      Cuts: 93     4644   27.72%
      0     0      356.8750   170      280.0000      Cuts: 91     4769   27.46%
      0     0      355.8763   170      280.0000     Cuts: 107     4941   27.10%
      0     0      355.8253   170      280.0000     Cuts: 101     5095   27.08%
      0     0      354.4792   170      280.0000      Cuts: 72     5189   26.60%
      0     0      353.8462   170      280.0000      Cuts: 79     5366   26.37%
      0     0      353.7101   170      280.0000     Cuts: 120     5595   26.33%
*     0+    0                          290.0000      353.7101            21.97%
Detecting symmetries...
      0     2      353.7101   160      290.0000      353.7101     5595   21.97%
Elapsed time = 0.76 sec. (696.73 ticks, tree = 0.01 MB, solutions = 7)
    109    88      340.8137   130      290.0000      353.5017    10736   21.90%
    272   233      342.3232   137      290.0000      353.1195    15799   21.77%
    467   406      340.1127   120      290.0000      353.0627    21739   21.75%

Performing restart 1

Repeating presolve.
Tried aggregator 1 time.
MIP Presolve modified 549 coefficients.
Reduced MIP has 690 rows, 913 columns, and 2960 nonzeros.
Reduced MIP has 786 binaries, 101 generals, 0 SOSs, and 0 indicators.
Presolve time = 0.01 sec. (2.92 ticks)
Tried aggregator 1 time.
Reduced MIP has 690 rows, 913 columns, and 2960 nonzeros.
Reduced MIP has 786 binaries, 101 generals, 0 SOSs, and 0 indicators.
Presolve time = 0.00 sec. (2.24 ticks)
Represolve time = 0.03 sec. (21.00 ticks)
    492     0      348.7791   185      290.0000     Cuts: 185    23535   20.27%
    492     0      342.7490   185      290.0000     Cuts: 145    23793   18.19%
    492     0      338.3333   185      290.0000     Cuts: 133    23887   16.67%
    492     0      338.1250   185      290.0000     Cuts: 107    23963   16.59%
    492     0      337.7475   185      290.0000      Cuts: 73    24047   16.46%
    492     0      336.3248   185      290.0000      Cuts: 89    24191   15.97%
    492     0      335.5798   185      290.0000      Cuts: 84    24270   15.72%
    492     0      335.1544   185      290.0000     Cuts: 100    24343   15.57%
    492     0      334.8566   185      290.0000      Cuts: 89    24419   15.47%
    492     0      333.9825   185      290.0000      Cuts: 99    24510   15.17%
    492     0      333.7525   185      290.0000      Cuts: 65    24576   15.09%
    492     0      333.4811   185      290.0000      Cuts: 72    24640   14.99%
    492     0      333.4063   185      290.0000     Cuts: 102    24694   14.97%
    492     0      333.1406   185      290.0000      Cuts: 52    24737   14.88%
    492     0      333.0433   185      290.0000      Cuts: 74    24779   14.84%
    492     0      332.1491   185      290.0000      Cuts: 31    24829   14.53%
    492     0      331.9724   185      290.0000      Cuts: 61    24865   14.47%
    492     0      330.7751   185      290.0000      Cuts: 37    24918   14.06%
*   492+    0                          295.0000      330.7751            12.13%
    492     0      330.0227   185      295.0000      Cuts: 52    24971   11.87%
*   492+    0                          300.0000      330.0227            10.01%
*   492+    0                          305.0000      330.0227             8.20%
    492     0        cutoff            305.0000      330.0227    24971    8.20%
    492     0      329.7098   185      305.0000      Cuts: 41    25012    8.10%
    492     0      329.5854   185      305.0000      Cuts: 55    25045    8.06%
    492     0      329.5089   185      305.0000      Cuts: 32    25072    8.04%
    492     0      329.2504   185      305.0000      Cuts: 39    25119    7.95%
    492     0      329.0827   185      305.0000      Cuts: 23    25163    7.90%
    492     0      328.6172   185      305.0000      Cuts: 71    25219    7.74%
    492     0      328.5659   185      305.0000      Cuts: 55    25252    7.73%
    492     0      328.5531   185      305.0000      Cuts: 13    25272    7.72%
    492     0      328.5193   185      305.0000      Cuts: 68    25329    7.71%
    492     0      328.4666   185      305.0000      Cuts: 52    25380    7.69%
    492     0      328.4642   185      305.0000      Cuts: 28    25417    7.69%
    492     2      328.4642   142      305.0000      328.4573    25417    7.69%
    498     8      326.6266   120      305.0000      327.3990    25930    7.34%
    534    34      322.8219   108      305.0000      327.2917    26742    7.31%
    569    53      325.8374   114      305.0000      326.6266    27980    7.09%
    622    88      311.1856    61      305.0000      325.3523    30171    6.67%
    692   132      315.9284    97      305.0000      323.9666    32706    6.22%
    997   294      316.3037    82      305.0000      321.1805    42565    5.31%
Elapsed time = 4.50 sec. (4916.16 ticks, tree = 1.05 MB, solutions = 10)
   1435   536      316.5354   108      305.0000      319.4877    53956    4.75%
   1798   675      310.0000    76      305.0000      318.3405    66993    4.37%
   2290   906      313.0478    84      305.0000      317.4105    79266    4.07%
   2837  1158      310.0000    27      305.0000      316.4376    93095    3.75%
   3537  1454      310.0000     1      305.0000      315.7757   106560    3.53%
   4267  1729        cutoff            305.0000      315.0000   119132    3.28%
   4839  1844        cutoff            305.0000      313.3463   131625    2.74%
   5517  2200        cutoff            305.0000      313.0709   144151    2.65%
   6180  2454      310.1558    55      305.0000      312.6238   156586    2.50%
   6974  2646      310.0000     1      305.0000      312.3082   169828    2.40%
Elapsed time = 12.65 sec. (14480.45 ticks, tree = 2.55 MB, solutions = 10)
   7927  2756        cutoff            305.0000      311.5957   181772    2.16%
   8914  2917        cutoff            305.0000      310.8156   193122    1.91%
   9995  2872        cutoff            305.0000      310.0000   204138    1.64%
  10458  2819      310.0000    11      305.0000      310.0000   210705    1.64%
  11548  2842      310.0000     9      305.0000      310.0000   222890    1.64%
  12658  2770      310.0000     9      305.0000      310.0000   237374    1.64%
  13797  2552      310.0000    13      305.0000      310.0000   251720    1.64%
  14740  2245        cutoff            305.0000      310.0000   264655    1.64%
  15864  1756        cutoff            305.0000      310.0000   277363    1.64%
  16985  1412        cutoff            305.0000      310.0000   291213    1.64%
Elapsed time = 21.23 sec. (24028.91 ticks, tree = 1.36 MB, solutions = 10)
  18181  1112      310.0000    11      305.0000      310.0000   305060    1.64%
  19431   874        cutoff            305.0000      310.0000   318973    1.64%
  20581   748        cutoff            305.0000      310.0000   331756    1.64%
  21693   620        cutoff            305.0000      310.0000   344820    1.64%
  22860   500      310.0000    16      305.0000      310.0000   357581    1.64%
  24059   384      310.0000     3      305.0000      310.0000   371446    1.64%
  25045   310      310.0000     5      305.0000      310.0000   386128    1.64%
  26225    87      310.0000     1      305.0000      310.0000   400418    1.64%

GUB cover cuts applied:  8
Clique cuts applied:  83
Cover cuts applied:  20
Implied bound cuts applied:  80
Flow cuts applied:  17
Mixed integer rounding cuts applied:  75
Zero-half cuts applied:  76
Lift and project cuts applied:  11
Gomory fractional cuts applied:  7

Root node processing (before b&c):
  Real time             =    0.76 sec. (695.12 ticks)
Sequential b&c:
  Real time             =   27.42 sec. (31352.37 ticks)
                          ------------
Total (root+branch&cut) =   28.19 sec. (32047.49 ticks)

Solution pool: 11 solutions saved.

MIP - Integer optimal solution:  Objective =  3.0500000000e+02
Solution time =   28.19 sec.  Iterations = 405771  Nodes = 26657
Deterministic time = 32047.50 ticks  (1137.03 ticks/sec)


Incumbent solution
Variable Name           Solution Value
F                           305.000000
y106                          1.000000
y239                          1.000000
y178                          1.000000
y270                          1.000000
y145                          1.000000
y209                          1.000000
y123                          1.000000
y72                           1.000000
y265                          1.000000
y266                          1.000000
y139                          1.000000
y138                          1.000000
y42                           1.000000
y133                          1.000000
y172                          1.000000
y260                          1.000000
y231                          1.000000
y170                          1.000000
x53x42x1                      1.000000
x132x138x1                    1.000000
x132x260x1                    1.000000
x27x145x1                     1.000000
x181x133x1                    1.000000
x190x170x1                    1.000000
x150x106x1                    1.000000
x150x239x1                    1.000000
x173x178x1                    1.000000
x53x139x2                     1.000000
x169x265x2                    1.000000
x225x231x2                    1.000000
x227x265x2                    1.000000
x272x133x2                    1.000000
x9x239x2                      1.000000
x9x178x2                      1.000000
x130x106x2                    1.000000
x130x270x2                    1.000000
x27x72x3                      1.000000
x181x138x3                    1.000000
x225x172x3                    1.000000
x227x72x3                     1.000000
x190x172x3                    1.000000
x197x123x3                    2.000000
x173x270x3                    1.000000
x106x266x1                    1.000000
x106x209x2                    1.000000
x239x266x1                    1.000000
x239x139x2                    1.000000
x178x145x1                    1.000000
x178x231x2                    1.000000
x270x170x2                    1.000000
x270x209x3                    1.000000
x145x0x1                      2.000000
x209x0x2                      1.000000
x209x0x3                      1.000000
x123x42x3                     1.000000
x123x260x3                    1.000000
x72x0x3                       2.000000
x265x0x2                      2.000000
x266x0x1                      2.000000
x139x0x2                      2.000000
x138x0x1                      1.000000
x138x0x3                      1.000000
x42x0x1                       1.000000
x42x0x3                       1.000000
x133x0x1                      1.000000
x133x0x2                      1.000000
x172x0x3                      2.000000
x260x0x1                      1.000000
x260x0x3                      1.000000
x231x0x2                      2.000000
x170x0x1                      1.000000
x170x0x2                      1.000000
s53                           7.385168
s213                          8.860000
s84                           8.910000
s265                          9.040000
s60                           8.060000
s14                           8.130000
s20                           9.160000
s266                          9.190000
s139                          9.250000
z53z139z2                     1.000000
s8                            9.260000
z53z8z1                       1.000000
s138                          9.280000
s42                           9.300000
z53z42z1                      1.000000
s235                          9.300000
z53z235z1                     1.000000
s133                          9.310000
s48                           9.330000
s260                          9.340000
s231                          9.390000
z53z231z2                     1.000000
s170                          9.420000
s249                          9.440000
z53z249z2                     1.000000
s4                            9.460000
s63                           9.480000
z53z63z2                      1.000000
s132                          7.586104
z132z266z1                    1.000000
z132z8z1                      1.000000
z132z138z1                    1.000000
z132z235z1                    1.000000
z132z260z1                    1.000000
s27                           7.340454
s178                          7.510000
s145                          8.605453
z27z145z1                     1.000000
s162                          8.570772
s209                          8.850000
s101                          8.900000
s123                          8.115996
s72                           8.940000
z27z72z3                      1.000000
s230                          9.070000
s222                          9.160000
z27z8z1                       1.000000
z27z235z1                     1.000000
s172                          9.330000
z27z172z3                     1.000000
s141                          9.340000
z27z141z3                     1.000000
s169                          7.101343
s106                          7.470338
s31                           7.420000
s29                           8.337159
s239                          7.646973
s277                          7.570000
s270                          7.634125
z169z265z2                    1.000000
z169z231z2                    1.000000
z169z249z2                    1.000000
z169z63z2                     1.000000
s181                          7.984296
z181z138z3                    1.000000
z181z133z1                    1.000000
s225                          7.459233
z225z172z3                    1.000000
z225z141z3                    1.000000
z225z231z2                    1.000000
z225z249z2                    1.000000
z225z63z2                     1.000000
s227                          7.250157
s259                          7.520000
z227z72z3                     1.000000
z227z265z2                    1.000000
z227z172z3                    1.000000
z227z141z3                    1.000000
z227z231z2                    1.000000
z227z249z2                    1.000000
z227z63z2                     1.000000
s272                          8.023592
z272z133z2                    1.000000
z272z249z2                    1.000000
z272z63z2                     1.000000
s190                          8.158692
z190z172z3                    1.000000
z190z170z1                    1.000000
s197                          5.380000
s204                          7.200000
z197z204z3                    1.000000
s114                          7.310000
s214                          7.310000
s15                           7.330000
s2                            8.430000
z197z259z3                    1.000000
s102                          8.680000
s236                          7.690000
z197z162z3                    1.000000
z197z123z3                    1.000000
z197z72z3                     1.000000
z197z230z3                    1.000000
z197z222z3                    1.000000
z197z172z3                    1.000000
z197z141z3                    1.000000
s150                          5.939760
z150z106z1                    1.000000
s220                          7.310000
z150z239z1                    1.000000
s77                           7.520000
z150z145z1                    1.000000
z150z84z1                     1.000000
z150z266z1                    1.000000
z150z8z1                      1.000000
z150z235z1                    1.000000
s173                          5.550000
z173z204z3                    1.000000
z173z220z1                    1.000000
z173z178z1                    1.000000
z173z77z1                     1.000000
z173z259z3                    1.000000
z173z270z3                    1.000000
z173z145z1                    1.000000
z173z162z3                    1.000000
z173z84z1                     1.000000
z173z123z3                    1.000000
z173z72z3                     1.000000
z173z230z3                    1.000000
z173z222z3                    1.000000
z173z266z1                    1.000000
z173z8z1                      1.000000
z173z235z1                    1.000000
z173z172z3                    1.000000
z173z141z3                    1.000000
s9                            5.960000
s116                          7.571192
z9z116z2                      1.000000
z9z29z2                       1.000000
z9z239z2                      1.000000
z9z178z2                      1.000000
z9z265z2                      1.000000
z9z139z2                      1.000000
z9z231z2                      1.000000
z9z249z2                      1.000000
z9z63z2                       1.000000
s130                          5.960000
z130z116z2                    1.000000
z130z106z2                    1.000000
z130z29z2                     1.000000
z130z270z2                    1.000000
z130z265z2                    1.000000
z130z139z2                    1.000000
z130z231z2                    1.000000
z130z249z2                    1.000000
z130z63z2                     1.000000
z204z230z3                    1.000000
z204z172z3                    1.000000
z204z141z3                    1.000000
z116z139z2                    1.000000
z116z231z2                    1.000000
z116z249z2                    1.000000
z116z63z2                     1.000000
z106z209z2                    1.000000
z106z266z1                    1.000000
z114z172z3                    1.000000
z114z141z3                    1.000000
z114z231z2                    1.000000
z114z249z2                    1.000000
z114z63z2                     1.000000
z214z8z1                      1.000000
z214z235z1                    1.000000
z214z172z3                    1.000000
z214z141z3                    1.000000
z220z266z1                    1.000000
z220z8z1                      1.000000
z220z235z1                    1.000000
z239z266z1                    1.000000
z239z139z2                    1.000000
z178z145z1                    1.000000
z178z231z2                    1.000000
z259z162z3                    1.000000
z259z230z3                    1.000000
z259z172z3                    1.000000
z259z141z3                    1.000000
z270z209z3                    1.000000
z270z170z2                    1.000000
z123z42z3                     1.000000
z123z260z3                    1.000000
All other variables in the range 1-1801 are 0.
